c description: Random 3-CNF over 15 variables and 80 clauses
c generator: CNFgen (0.9.0)
c copyright: (C) 2012-2020 Massimo Lauria <massimo.lauria@uniroma1.it>
c url: https://massimolauria.net/cnfgen
c
p cnf 15 80
-1 -6 -15 0
-7 8 -9 0
3 9 11 0
3 14 -15 0
4 -5 6 0
-5 9 -11 0
7 -8 -9 0
-9 12 14 0
6 10 15 0
2 9 11 0
1 4 7 0
-1 -7 -14 0
-2 7 10 0
3 13 15 0
2 -10 -14 0
2 -5 6 0
-1 -4 -15 0
-11 -12 14 0
4 -8 -14 0
-1 -2 3 0
-1 4 -10 0
-7 -10 -15 0
-8 13 -15 0
-1 3 -15 0
-3 7 15 0
-6 -9 13 0
2 -6 -14 0
7 -9 -12 0
-2 -8 15 0
1 -5 -7 0
4 -12 13 0
2 5 -12 0
-7 -11 -12 0
-9 -11 13 0
3 -10 -13 0
3 -5 13 0
-1 -4 9 0
-6 -9 -11 0
8 9 -12 0
2 7 -10 0
-11 -13 -15 0
1 -8 -10 0
-10 -12 14 0
1 -2 -15 0
4 12 -14 0
1 4 15 0
-6 10 12 0
3 -7 -10 0
-8 10 -15 0
8 -9 -14 0
-1 -4 10 0
7 -12 -13 0
-3 14 15 0
-1 3 -6 0
-5 -13 -14 0
-6 10 -11 0
-9 10 13 0
2 -9 15 0
-4 -8 12 0
7 12 -15 0
-4 12 13 0
3 -4 -11 0
-1 -9 13 0
-4 8 -12 0
-1 6 -14 0
-6 8 -14 0
2 -10 12 0
-7 14 -15 0
3 8 13 0
-5 9 -13 0
-3 4 -15 0
-3 -6 12 0
-7 9 -14 0
1 7 -15 0
-2 -9 -15 0
-2 -5 -12 0
-4 -10 14 0
-6 -9 11 0
-1 3 -10 0
-1 9 -14 0